(set-info :smt-lib-version 2.6)
(set-logic QF_LIA)
(set-info :source |
Alberto Griggio

|)
(set-info :category "crafted")
(set-info :status unsat)
(declare-fun v0 () Int)
(declare-fun v1 () Int)
(declare-fun v2 () Int)
(declare-fun v3 () Int)
(declare-fun v4 () Int)
(declare-fun v5 () Int)
(declare-fun v6 () Int)
(declare-fun o_0 () Int)
(declare-fun s_2 () Int)
(declare-fun o_1 () Int)
(declare-fun s_3 () Int)
(declare-fun s_4 () Int)
(declare-fun o_2 () Int)
(declare-fun s_5 () Int)
(declare-fun o_3 () Int)
(declare-fun o_4 () Int)
(declare-fun o_5 () Int)
(declare-fun o_6 () Int)
(declare-fun o_7 () Int)
(declare-fun s_8 () Int)
(declare-fun o_8 () Int)
(declare-fun s_9 () Int)
(declare-fun o_9 () Int)
(declare-fun s_10 () Int)
(declare-fun o_10 () Int)
(declare-fun s_11 () Int)
(declare-fun o_11 () Int)
(declare-fun A_itev1 () Int)
(declare-fun A_itev2 () Int)
(declare-fun A_itev3 () Int)
(declare-fun A_itev4 () Int)
(declare-fun A_itev5 () Int)
(declare-fun A_itev6 () Int)
(declare-fun A_itev7 () Int)
(declare-fun A_itev8 () Int)
(declare-fun A_itev9 () Int)
(declare-fun A_itev10 () Int)
(assert (let ((?v_61 (* v5 32)) (?v_60 (* v6 64))) (let ((?v_93 (+ ?v_60 ?v_61)) (?v_92 (* A_itev4 16)) (?v_35 (* v1 2)) (?v_21 (* v2 4)) (?v_55 (* v3 8)) (?v_62 (* v4 16)) (?v_87 (* A_itev4 8)) (?v_82 (* A_itev4 4)) (?v_77 (* A_itev4 2)) (?v_48 (* v5 2)) (?v_1 (<= 64 v6))) (let ((?v_41 (not ?v_1)) (?v_18 (<= 64 v2))) (let ((?v_40 (not ?v_18)) (?v_32 (<= 64 v1))) (let ((?v_39 (not ?v_32)) (?v_38 (= A_itev10 A_itev9)) (?v_37 (= (+ (- A_itev10) ?v_35) 0)) (?v_36 (<= 32 v1)) (?v_31 (+ (- A_itev9) ?v_35))) (let ((?v_34 (= ?v_31 64)) (?v_33 (= ?v_31 128)) (?v_30 (= A_itev8 A_itev7)) (?v_29 (= (+ (- A_itev8) ?v_21) 0)) (?v_28 (<= 16 v2)) (?v_27 (= A_itev7 A_itev6)) (?v_26 (= (+ (- A_itev7) ?v_21) 64)) (?v_25 (<= 32 v2)) (?v_24 (= A_itev6 A_itev5)) (?v_23 (= (+ (- A_itev6) ?v_21) 128)) (?v_22 (<= 48 v2)) (?v_17 (+ (- A_itev5) ?v_21))) (let ((?v_20 (= ?v_17 192)) (?v_19 (= ?v_17 256)) (?v_16 (= A_itev4 A_itev3)) (?v_7 (= A_itev2 A_itev1)) (?v_4 (* v6 2))) (let ((?v_6 (= (+ (- A_itev2) ?v_4) 0)) (?v_5 (<= 32 v6)) (?v_0 (+ (- A_itev1) ?v_4))) (let ((?v_3 (= ?v_0 64)) (?v_2 (= ?v_0 128)) (?v_13 (+ (+ (* o_6 (- 128)) ?v_48) (* A_itev2 2)))) (let ((?v_8 (+ (- A_itev3) ?v_13))) (let ((?v_11 (= ?v_8 64)) (?v_12 (+ (+ (* o_6 (- 64)) v5) A_itev2))) (let ((?v_9 (<= 64 ?v_12)) (?v_10 (= ?v_8 128))) (let ((?v_71 (not ?v_9)) (?v_14 (<= 32 ?v_12)) (?v_15 (= (+ ?v_13 (- A_itev4)) 0)) (?v_52 (* o_0 (- 64)))) (let ((?v_42 (+ (+ ?v_52 v0) A_itev10)) (?v_43 (+ (* s_2 (- 8)) v3)) (?v_56 (* s_2 (- 64)))) (let ((?v_45 (+ ?v_56 ?v_55)) (?v_57 (* o_1 (- 64)))) (let ((?v_44 (+ (+ ?v_45 ?v_57) A_itev8)) (?v_49 (* s_3 (- 4)))) (let ((?v_46 (+ ?v_49 v4)) (?v_47 (+ (* s_4 (- 2)) v5)) (?v_51 (+ (+ (+ ?v_48 v4) (* s_4 (- 4))) ?v_49))) (let ((?v_50 (+ (* o_2 (- 4)) ?v_51)) (?v_67 (* s_5 (- 64)))) (let ((?v_54 (+ (+ (+ ?v_60 v0) ?v_67) ?v_52)) (?v_68 (* o_3 (- 64)))) (let ((?v_53 (+ (+ ?v_54 ?v_68) A_itev10)) (?v_63 (* s_4 (- 64))) (?v_64 (* s_3 (- 64))) (?v_65 (* o_2 (- 64)))) (let ((?v_59 (+ (+ (+ (+ (+ (+ (+ ?v_62 ?v_61) ?v_55) ?v_63) ?v_64) ?v_65) ?v_56) ?v_57)) (?v_66 (* o_4 (- 64)))) (let ((?v_58 (+ (+ ?v_59 ?v_66) A_itev8)) (?v_70 (+ (+ (+ (+ (+ (+ (+ (+ (+ (+ (+ (+ ?v_93 ?v_62) ?v_55) v0) ?v_63) ?v_64) ?v_65) ?v_56) ?v_57) ?v_66) ?v_67) ?v_52) ?v_68)) (?v_94 (* o_5 (- 64)))) (let ((?v_69 (+ (+ (+ ?v_70 ?v_94) A_itev8) A_itev10)) (?v_73 (+ (* o_7 (- 64)) v4))) (let ((?v_72 (+ ?v_73 A_itev4)) (?v_74 (+ (+ (* s_8 (- 32)) ?v_73) A_itev4)) (?v_76 (+ (+ (+ (* o_7 (- 128)) (* v4 2)) (* s_8 (- 64))) v3))) (let ((?v_78 (+ ?v_76 (* o_8 (- 64))))) (let ((?v_75 (+ ?v_78 ?v_77)) (?v_79 (+ (+ (* s_9 (- 32)) ?v_78) ?v_77)) (?v_81 (+ (+ (+ (+ (+ (+ (* o_7 (- 256)) (* v4 4)) (* s_8 (- 128))) (* v3 2)) (* o_8 (- 128))) (* s_9 (- 64))) v2))) (let ((?v_83 (+ ?v_81 (* o_9 (- 64))))) (let ((?v_80 (+ ?v_83 ?v_82)) (?v_84 (+ (+ (* s_10 (- 32)) ?v_83) ?v_82)) (?v_86 (+ (+ (+ (+ (+ (+ (+ (+ (+ (* o_7 (- 512)) (* v4 8)) (* s_8 (- 256))) (* v3 4)) (* o_8 (- 256))) (* s_9 (- 128))) (* v2 2)) (* o_9 (- 128))) (* s_10 (- 64))) v1))) (let ((?v_88 (+ ?v_86 (* o_10 (- 64))))) (let ((?v_85 (+ ?v_88 ?v_87)) (?v_89 (+ (+ (* s_11 (- 32)) ?v_88) ?v_87)) (?v_91 (+ (+ (+ (+ (+ (+ (+ (+ (+ (+ (+ (+ (* o_7 (- 1024)) ?v_62) (* s_8 (- 512))) ?v_55) (* o_8 (- 512))) (* s_9 (- 256))) ?v_21) (* o_9 (- 256))) (* s_10 (- 128))) ?v_35) (* o_10 (- 128))) (* s_11 (- 64))) v0))) (let ((?v_90 (+ (+ (* o_11 (- 64)) ?v_91) ?v_92))) (and (and (and (and (and (and (and (and (and (and (and (and (and (and (and (and (and (and (and (and (and (and (and (and (and (and (and (and (and (and (or ?v_2 ?v_41) (or ?v_3 ?v_1)) (or ?v_2 ?v_3)) (or ?v_5 ?v_6)) (or (not ?v_5) ?v_7)) (or ?v_6 ?v_7)) (or ?v_11 ?v_9)) (or ?v_10 ?v_71)) (or ?v_10 ?v_11)) (or ?v_14 ?v_15)) (or (not ?v_14) ?v_16)) (or ?v_15 ?v_16)) (or ?v_20 ?v_18)) (or ?v_19 ?v_40)) (or ?v_19 ?v_20)) (or ?v_22 ?v_23)) (or (not ?v_22) ?v_24)) (or ?v_23 ?v_24)) (or ?v_25 ?v_26)) (or (not ?v_25) ?v_27)) (or ?v_26 ?v_27)) (or ?v_28 ?v_29)) (or (not ?v_28) ?v_30)) (or ?v_29 ?v_30)) (or ?v_34 ?v_32)) (or ?v_33 ?v_39)) (or ?v_33 ?v_34)) (or ?v_36 ?v_37)) (or (not ?v_36) ?v_38)) (or ?v_37 ?v_38)) (and (and (and (and (and (and (and (and (and (and (and (and (and (and (and (and (and (and (and (and (and (and (and (and (and (and (and (and (and (and (and (and (and (and (and (and (and (and (and (and (and (and (and (and (and (and (and (and (and (and (and (and (and (and (and (and (and (and (and (and (and (and (and (and (and (and (and (and (<= 0 v0) (not (<= 64 v0))) (and (<= 0 v1) ?v_39)) (and (<= 0 v2) ?v_40)) (and (<= 0 v3) (not (<= 64 v3)))) (and (<= 0 v4) (not (<= 64 v4)))) (and (<= 0 v5) (not (<= 64 v5)))) (and (<= 0 v6) ?v_41)) (and (<= 0 o_0) (<= o_0 1))) (and (<= 0 ?v_42) (not (<= 64 ?v_42)))) (= (not (<= (+ A_itev10 v0) 64)) (= o_0 1))) (and (not (<= 8 s_2)) (<= 0 s_2))) (and (<= 0 ?v_43) (not (<= 8 ?v_43)))) (= (<= 1 s_2) (not (<= v3 8)))) (and (<= 0 o_1) (<= o_1 1))) (and (<= 0 ?v_44) (not (<= 64 ?v_44)))) (= (not (<= (+ ?v_45 A_itev8) 64)) (= o_1 1))) (and (not (<= 16 s_3)) (<= 0 s_3))) (and (<= 0 ?v_46) (not (<= 4 ?v_46)))) (= (<= 1 s_3) (not (<= v4 4)))) (and (not (<= 32 s_4)) (<= 0 s_4))) (and (<= 0 ?v_47) (not (<= 2 ?v_47)))) (= (<= 1 s_4) (not (<= v5 2)))) (and (<= 0 o_2) (<= o_2 1))) (and (<= 0 ?v_50) (not (<= 4 ?v_50)))) (= (not (<= ?v_51 4)) (= o_2 1))) (and (not (<= 64 s_5)) (<= 0 s_5))) (and (<= s_5 v6) (not (<= 1 (- v6 s_5))))) (= (<= 1 s_5) (not (<= v6 1)))) (and (<= 0 o_3) (<= o_3 1))) (and (<= 0 ?v_53) (not (<= 64 ?v_53)))) (= (not (<= (+ ?v_54 A_itev10) 64)) (= o_3 1))) (and (<= 0 o_4) (<= o_4 1))) (and (<= 0 ?v_58) (not (<= 64 ?v_58)))) (= (not (<= (+ ?v_59 A_itev8) 64)) (= o_4 1))) (and (<= 0 o_5) (<= o_5 1))) (and (<= 0 ?v_69) (not (<= 64 ?v_69)))) (= (not (<= (+ (+ ?v_70 A_itev8) A_itev10) 64)) (= o_5 1))) (and (<= 0 o_6) (<= o_6 1))) (and (<= 0 ?v_12) ?v_71)) (= (not (<= (+ A_itev2 v5) 64)) (= o_6 1))) (and (<= 0 o_7) (<= o_7 1))) (and (<= 0 ?v_72) (not (<= 64 ?v_72)))) (= (not (<= (+ A_itev4 v4) 64)) (= o_7 1))) (and (not (<= 2 s_8)) (<= 0 s_8))) (and (<= 0 ?v_74) (not (<= 32 ?v_74)))) (= (<= 1 s_8) (not (<= ?v_72 32)))) (and (<= 0 o_8) (<= o_8 1))) (and (<= 0 ?v_75) (not (<= 64 ?v_75)))) (= (not (<= (+ ?v_76 ?v_77) 64)) (= o_8 1))) (and (not (<= 2 s_9)) (<= 0 s_9))) (and (<= 0 ?v_79) (not (<= 32 ?v_79)))) (= (<= 1 s_9) (not (<= ?v_75 32)))) (and (<= 0 o_9) (<= o_9 1))) (and (<= 0 ?v_80) (not (<= 64 ?v_80)))) (= (not (<= (+ ?v_81 ?v_82) 64)) (= o_9 1))) (and (not (<= 2 s_10)) (<= 0 s_10))) (and (<= 0 ?v_84) (not (<= 32 ?v_84)))) (= (<= 1 s_10) (not (<= ?v_80 32)))) (and (<= 0 o_10) (<= o_10 1))) (and (<= 0 ?v_85) (not (<= 64 ?v_85)))) (= (not (<= (+ ?v_86 ?v_87) 64)) (= o_10 1))) (and (not (<= 2 s_11)) (<= 0 s_11))) (and (<= 0 ?v_89) (not (<= 32 ?v_89)))) (= (<= 1 s_11) (not (<= ?v_85 32)))) (and (<= 0 o_11) (<= o_11 1))) (and (<= 0 ?v_90) (not (<= 64 ?v_90)))) (= (not (<= (+ ?v_91 ?v_92) 64)) (= o_11 1))) (not (= (+ (+ (+ (+ (+ (+ (+ (+ (+ (+ (+ (+ (+ (+ (+ (+ (+ (+ (+ (+ (+ (+ (+ (+ ?v_93 (* o_7 1024)) (* s_8 512)) (* o_8 512)) (* s_9 256)) (* v2 (- 4))) (* o_9 256)) (* s_10 128)) (* v1 (- 2))) (* o_10 128)) (* s_11 64)) (* o_11 64)) ?v_63) ?v_64) ?v_65) ?v_56) ?v_57) ?v_66) ?v_67) ?v_52) ?v_68) ?v_94) (* A_itev4 (- 16))) A_itev8) A_itev10) 0))))))))))))))))))))))))))))))))))))
(check-sat)
(exit)
